(set-info :smt-lib-version 2.6)
(set-logic QF_UF)
(set-info :source |
Generated by: Aman Goel (amangoel@umich.edu), Karem A. Sakallah (karem@umich.edu)
Generated on: 2018-04-06

Generated by the tool Averroes 2 (successor of [1]) which implements safety property
verification on hardware systems.

This SMT problem belongs to a set of SMT problems generated by applying Averroes 2
to benchmarks derived from [2-5].

A total of 412 systems (345 from [2], 19 from [3], 26 from [4], 22 from [5]) were
syntactically converted from their original formats (using [6, 7]), and given to 
Averroes 2 to perform property checking with abstraction (wide bit-vectors -> terms, 
wide operators -> UF) using SMT solvers [8, 9].

[1] Lee S., Sakallah K.A. (2014) Unbounded Scalable Verification Based on Approximate
Property-Directed Reachability and Datapath Abstraction. In: Biere A., Bloem R. (eds)
Computer Aided Verification. CAV 2014. Lecture Notes in Computer Science, vol 8559.
Springer, Cham
[2] http://fmv.jku.at/aiger/index.html#beem
[3] http://www.cs.cmu.edu/~modelcheck/vcegar
[4] http://www.cprover.org/hardware/v2c
[5] http://github.com/aman-goel/verilogbench
[6] http://www.clifford.at/yosys
[7] http://github.com/chengyinwu/V3
[8] http://github.com/Z3Prover/z3
[9] http://github.com/SRI-CSL/yices2

id: synapse.6.prop1
query-maker: "Yices 2"
query-time: 0.002000 ms
query-class: abstract
query-category: oneshot
query-type: regular
status: unsat
|)
(set-info :license "https://creativecommons.org/licenses/by/4.0/")
(set-info :category "industrial")

;
(set-info :status unsat)
(declare-sort utt$8 0)
(declare-sort utt$16 0)
(declare-sort utt$32 0)
(declare-fun y$1 () Bool)
(declare-fun y$101 () Bool)
(declare-fun y$103 () Bool)
(declare-fun y$105 () Bool)
(declare-fun y$107 () Bool)
(declare-fun y$109 () Bool)
(declare-fun y$11 () Bool)
(declare-fun y$111 () Bool)
(declare-fun y$113 () Bool)
(declare-fun y$115 () Bool)
(declare-fun y$117 () Bool)
(declare-fun y$119 () Bool)
(declare-fun y$121 () Bool)
(declare-fun y$123 () Bool)
(declare-fun y$125 () Bool)
(declare-fun y$127 () Bool)
(declare-fun y$129 () Bool)
(declare-fun y$13 () Bool)
(declare-fun y$132 () Bool)
(declare-fun y$134 () Bool)
(declare-fun y$136 () Bool)
(declare-fun y$139 () Bool)
(declare-fun y$141 () Bool)
(declare-fun y$143 () Bool)
(declare-fun y$145 () Bool)
(declare-fun y$147 () Bool)
(declare-fun y$149 () Bool)
(declare-fun y$15 () Bool)
(declare-fun y$151 () Bool)
(declare-fun y$153 () Bool)
(declare-fun y$17 () Bool)
(declare-fun y$19 () Bool)
(declare-fun y$21 () Bool)
(declare-fun y$23 () Bool)
(declare-fun y$25 () Bool)
(declare-fun y$27 () Bool)
(declare-fun y$29 () Bool)
(declare-fun y$3 () Bool)
(declare-fun y$31 () Bool)
(declare-fun y$33 () Bool)
(declare-fun y$35 () Bool)
(declare-fun y$37 () Bool)
(declare-fun y$39 () Bool)
(declare-fun y$41 () Bool)
(declare-fun y$43 () Bool)
(declare-fun y$45 () Bool)
(declare-fun y$47 () Bool)
(declare-fun y$49 () Bool)
(declare-fun y$5 () Bool)
(declare-fun y$51 () Bool)
(declare-fun y$53 () Bool)
(declare-fun y$55 () Bool)
(declare-fun y$57 () Bool)
(declare-fun y$59 () Bool)
(declare-fun y$61 () Bool)
(declare-fun y$63 () Bool)
(declare-fun y$65 () Bool)
(declare-fun y$67 () Bool)
(declare-fun y$69 () Bool)
(declare-fun y$7 () Bool)
(declare-fun y$71 () Bool)
(declare-fun y$73 () Bool)
(declare-fun y$75 () Bool)
(declare-fun y$77 () Bool)
(declare-fun y$79 () Bool)
(declare-fun y$81 () Bool)
(declare-fun y$83 () Bool)
(declare-fun y$85 () Bool)
(declare-fun y$87 () Bool)
(declare-fun y$8772 () Bool)
(declare-fun y$8773 () Bool)
(declare-fun y$89 () Bool)
(declare-fun y$8974 () Bool)
(declare-fun y$8981 () Bool)
(declare-fun y$9 () Bool)
(declare-fun y$91 () Bool)
(declare-fun y$93 () Bool)
(declare-fun y$95 () Bool)
(declare-fun y$97 () Bool)
(declare-fun y$99 () Bool)
(declare-fun y$a_check () Bool)
(declare-fun y$a_d_app_read_Cache_0 () Bool)
(declare-fun y$a_d_app_read_Cache_1 () Bool)
(declare-fun y$a_d_app_read_Cache_2 () Bool)
(declare-fun y$a_d_bus_req_Cache_0 () Bool)
(declare-fun y$a_d_bus_req_Cache_1 () Bool)
(declare-fun y$a_d_bus_req_Cache_2 () Bool)
(declare-fun y$a_dirty_Cache_0 () Bool)
(declare-fun y$a_dirty_Cache_1 () Bool)
(declare-fun y$a_dirty_Cache_2 () Bool)
(declare-fun y$a_error_st_Cache_0 () Bool)
(declare-fun y$a_error_st_Cache_1 () Bool)
(declare-fun y$a_error_st_Cache_2 () Bool)
(declare-fun y$a_i_app_read_Cache_0 () Bool)
(declare-fun y$a_i_app_read_Cache_1 () Bool)
(declare-fun y$a_i_app_read_Cache_2 () Bool)
(declare-fun y$a_i_app_write_Cache_0 () Bool)
(declare-fun y$a_i_app_write_Cache_1 () Bool)
(declare-fun y$a_i_app_write_Cache_2 () Bool)
(declare-fun y$a_i_bus_req_Cache_0 () Bool)
(declare-fun y$a_i_bus_req_Cache_1 () Bool)
(declare-fun y$a_i_bus_req_Cache_2 () Bool)
(declare-fun y$a_id1_Cache_0 () Bool)
(declare-fun y$a_id1_Cache_1 () Bool)
(declare-fun y$a_id1_Cache_2 () Bool)
(declare-fun y$a_idle_Application_0 () Bool)
(declare-fun y$a_idle_Application_1 () Bool)
(declare-fun y$a_idle_Application_2 () Bool)
(declare-fun y$a_idle_Bus () Bool)
(declare-fun y$a_invalid_Cache_0 () Bool)
(declare-fun y$a_invalid_Cache_1 () Bool)
(declare-fun y$a_invalid_Cache_2 () Bool)
(declare-fun y$a_iv1_Cache_0 () Bool)
(declare-fun y$a_iv1_Cache_1 () Bool)
(declare-fun y$a_iv1_Cache_2 () Bool)
(declare-fun y$a_iv2_Cache_0 () Bool)
(declare-fun y$a_iv2_Cache_1 () Bool)
(declare-fun y$a_iv2_Cache_2 () Bool)
(declare-fun y$a_send () Bool)
(declare-fun y$a_set_value_Cache_0 () Bool)
(declare-fun y$a_set_value_Cache_1 () Bool)
(declare-fun y$a_set_value_Cache_2 () Bool)
(declare-fun y$a_v_app_read_Cache_0 () Bool)
(declare-fun y$a_v_app_read_Cache_1 () Bool)
(declare-fun y$a_v_app_read_Cache_2 () Bool)
(declare-fun y$a_v_app_write_Cache_0 () Bool)
(declare-fun y$a_v_app_write_Cache_1 () Bool)
(declare-fun y$a_v_app_write_Cache_2 () Bool)
(declare-fun y$a_v_bus_req_Cache_0 () Bool)
(declare-fun y$a_v_bus_req_Cache_1 () Bool)
(declare-fun y$a_v_bus_req_Cache_2 () Bool)
(declare-fun y$a_valid_Cache_0 () Bool)
(declare-fun y$a_valid_Cache_1 () Bool)
(declare-fun y$a_valid_Cache_2 () Bool)
(declare-fun y$a_wait () Bool)
(declare-fun y$a_wait_bus_ack_Cache_0 () Bool)
(declare-fun y$a_wait_bus_ack_Cache_1 () Bool)
(declare-fun y$a_wait_bus_ack_Cache_2 () Bool)
(declare-fun y$a_wait_read_Application_0 () Bool)
(declare-fun y$a_wait_read_Application_1 () Bool)
(declare-fun y$a_wait_read_Application_2 () Bool)
(declare-fun y$a_wait_write_Application_0 () Bool)
(declare-fun y$a_wait_write_Application_1 () Bool)
(declare-fun y$a_wait_write_Application_2 () Bool)
(declare-fun y$dve_invalid () Bool)
(declare-fun y$id88 () Bool)
(declare-fun y$id88_op () Bool)
(declare-fun y$n0s16 () utt$16)
(declare-fun y$n0s32 () utt$32)
(declare-fun y$n0s8 () utt$8)
(declare-fun y$n16s16 () utt$16)
(declare-fun y$n16s32 () utt$32)
(declare-fun y$n17s16 () utt$16)
(declare-fun y$n1s16 () utt$16)
(declare-fun y$n1s32 () utt$32)
(declare-fun y$n1s8 () utt$8)
(declare-fun y$n255s8 () utt$8)
(declare-fun y$n2s16 () utt$16)
(declare-fun y$n2s32 () utt$32)
(declare-fun y$n2s8 () utt$8)
(declare-fun y$n32s32 () utt$32)
(declare-fun y$n3s16 () utt$16)
(declare-fun y$n3s32 () utt$32)
(declare-fun y$n3s8 () utt$8)
(declare-fun y$n4294967295s32 () utt$32)
(declare-fun y$n65535s16 () utt$16)
(declare-fun y$prop () Bool)
(declare-fun y$v_i () utt$8)
(declare-fun y$v_j () utt$8)
(declare-fun y$v_lock () utt$8)
(declare-fun y$v_m_Bus () utt$16)
(declare-fun y$v_m_Cache_0 () utt$16)
(declare-fun y$v_m_Cache_1 () utt$16)
(declare-fun y$v_m_Cache_2 () utt$16)
(declare-fun y$v_value_Bus () utt$8)
(declare-fun y$v_value_Cache_0 () utt$8)
(declare-fun y$v_value_Cache_1 () utt$8)
(declare-fun y$v_value_Cache_2 () utt$8)
(assert (distinct y$n0s8 y$n1s8 y$n255s8 y$n2s8 y$n3s8))
(assert (distinct y$n0s16 y$n17s16 y$n16s16 y$n1s16 y$n65535s16 y$n3s16 y$n2s16))
(assert (distinct y$n16s32 y$n1s32 y$n32s32 y$n0s32 y$n3s32 y$n4294967295s32 y$n2s32))
(assert (= y$a_check (not y$1)))
(assert (= y$a_d_app_read_Cache_0 (not y$3)))
(assert (= y$a_d_app_read_Cache_1 (not y$5)))
(assert (= y$a_d_app_read_Cache_2 (not y$7)))
(assert (= y$a_d_bus_req_Cache_0 (not y$9)))
(assert (= y$a_d_bus_req_Cache_1 (not y$11)))
(assert (= y$a_d_bus_req_Cache_2 (not y$13)))
(assert (= y$a_dirty_Cache_0 (not y$15)))
(assert (= y$a_dirty_Cache_1 (not y$17)))
(assert (= y$a_dirty_Cache_2 (not y$19)))
(assert (= y$a_error_st_Cache_0 (not y$21)))
(assert (= y$a_error_st_Cache_1 (not y$23)))
(assert (= y$a_error_st_Cache_2 (not y$25)))
(assert (= y$a_i_app_read_Cache_0 (not y$27)))
(assert (= y$a_i_app_read_Cache_1 (not y$29)))
(assert (= y$a_i_app_read_Cache_2 (not y$31)))
(assert (= y$a_i_app_write_Cache_0 (not y$33)))
(assert (= y$a_i_app_write_Cache_1 (not y$35)))
(assert (= y$a_i_app_write_Cache_2 (not y$37)))
(assert (= y$a_i_bus_req_Cache_0 (not y$39)))
(assert (= y$a_i_bus_req_Cache_1 (not y$41)))
(assert (= y$a_i_bus_req_Cache_2 (not y$43)))
(assert (= y$a_id1_Cache_0 (not y$45)))
(assert (= y$a_id1_Cache_1 (not y$47)))
(assert (= y$a_id1_Cache_2 (not y$49)))
(assert (= y$a_idle_Application_0 (not y$51)))
(assert (= y$a_idle_Application_1 (not y$53)))
(assert (= y$a_idle_Application_2 (not y$55)))
(assert (= y$a_idle_Bus (not y$57)))
(assert (= y$a_invalid_Cache_0 (not y$59)))
(assert (= y$a_invalid_Cache_1 (not y$61)))
(assert (= y$a_invalid_Cache_2 (not y$63)))
(assert (= y$a_iv1_Cache_0 (not y$65)))
(assert (= y$a_iv1_Cache_1 (not y$67)))
(assert (= y$a_iv1_Cache_2 (not y$69)))
(assert (= y$a_iv2_Cache_0 (not y$71)))
(assert (= y$a_iv2_Cache_1 (not y$73)))
(assert (= y$a_iv2_Cache_2 (not y$75)))
(assert (= y$a_send (not y$77)))
(assert (= y$a_set_value_Cache_0 (not y$79)))
(assert (= y$a_set_value_Cache_1 (not y$81)))
(assert (= y$a_set_value_Cache_2 (not y$83)))
(assert (= y$a_v_app_read_Cache_0 (not y$85)))
(assert (= y$a_v_app_read_Cache_1 (not y$87)))
(assert (= y$a_v_app_read_Cache_2 (not y$89)))
(assert (= y$a_v_app_write_Cache_0 (not y$91)))
(assert (= y$a_v_app_write_Cache_1 (not y$93)))
(assert (= y$a_v_app_write_Cache_2 (not y$95)))
(assert (= y$a_v_bus_req_Cache_0 (not y$97)))
(assert (= y$a_v_bus_req_Cache_1 (not y$99)))
(assert (= y$a_v_bus_req_Cache_2 (not y$101)))
(assert (= y$a_valid_Cache_0 (not y$103)))
(assert (= y$a_valid_Cache_1 (not y$105)))
(assert (= y$a_valid_Cache_2 (not y$107)))
(assert (= y$a_wait (not y$109)))
(assert (= y$a_wait_bus_ack_Cache_0 (not y$111)))
(assert (= y$a_wait_bus_ack_Cache_1 (not y$113)))
(assert (= y$a_wait_bus_ack_Cache_2 (not y$115)))
(assert (= y$a_wait_read_Application_0 (not y$117)))
(assert (= y$a_wait_read_Application_1 (not y$119)))
(assert (= y$a_wait_read_Application_2 (not y$121)))
(assert (= y$a_wait_write_Application_0 (not y$123)))
(assert (= y$a_wait_write_Application_1 (not y$125)))
(assert (= y$a_wait_write_Application_2 (not y$127)))
(assert (= y$dve_invalid (not y$129)))
(assert (= y$132 (= y$n0s8 y$v_i)))
(assert (= y$134 (= y$n0s8 y$v_j)))
(assert (= y$136 (= y$n0s8 y$v_lock)))
(assert (= y$139 (= y$n0s16 y$v_m_Bus)))
(assert (= y$141 (= y$n0s16 y$v_m_Cache_0)))
(assert (= y$143 (= y$n0s16 y$v_m_Cache_1)))
(assert (= y$145 (= y$n0s16 y$v_m_Cache_2)))
(assert (= y$147 (= y$n0s8 y$v_value_Bus)))
(assert (= y$149 (= y$n0s8 y$v_value_Cache_0)))
(assert (= y$151 (= y$n0s8 y$v_value_Cache_1)))
(assert (= y$153 (= y$n0s8 y$v_value_Cache_2)))
(assert (= y$prop (not y$8974)))
(assert (= y$id88_op (and y$a_error_st_Cache_0 y$129)))
(assert (= y$id88_op (not y$8772)))
(assert (= y$8773 (= y$prop y$8772)))
(assert (= y$8981 (and y$1 y$3 y$5 y$7 y$9 y$11 y$13 y$15 y$17 y$19 y$21 y$23 y$25 y$27 y$29 y$31 y$33 y$35 y$37 y$39 y$41 y$43 y$45 y$47 y$49 y$51 y$53 y$55 y$57 y$59 y$61 y$63 y$65 y$67 y$69 y$71 y$73 y$75 y$77 y$79 y$81 y$83 y$85 y$87 y$89 y$91 y$93 y$95 y$97 y$99 y$101 y$103 y$105 y$107 y$109 y$111 y$113 y$115 y$117 y$119 y$121 y$123 y$125 y$127 y$129 y$132 y$134 y$136 y$139 y$141 y$143 y$145 y$147 y$149 y$151 y$153 y$8974 y$8773)))
(assert y$8981)
(check-sat)
(exit)
